BEGIN IONS
CHARGE=1+
SPECTRUM_ID=CCMSLIB00000001547
SOURCE_FILE=130618_Ger_Jenia_WT-3-Des-MCLR_MH981.4-qb.1.1..mgf
TASK=47daa4396adb426eaa5fa54b6ce7dd5f
SCAN=-1
MS_LEVEL=2
LIBRARY_MEMBERSHIP=GNPS-LIBRARY
SPECTRUM_STATUS=1
SPLASH=splash10-0w2a-0001282259-0001282259
SUBMIT_USER=mwang87
COMPOUND_NAME=3-Des-Microcystein_LR
ION_SOURCE=LC-ESI
COMPOUND_SOURCE=Isolated
INSTRUMENT=qTof
PI=Gerwick
DATA_COLLECTOR=Jenia
ADDUCT=M+H
PEPMASS=981.54
EXACTMASS=0.0
CAS_NUMBER=N/A
PUBMED_ID=N/A
SMILES=CC(C)CC1NC(=O)C(C)NC(=O)C(=C)N(C)C(=O)CCC(NC(=O)C(C)C(NC(=O)C(CCCNC(N)=N)NC(=O)C(C)C(NC1=O)C(O)=O)\C=C\C(\C)=C\C(C)C(O)Cc1ccccc1)C(O)=O
INCHI=InChI=1S/C48H72N10O12/c1-25(2)22-36-45(66)57-39(47(69)70)29(6)41(62)54-34(16-13-21-51-48(49)50)44(65)53-33(18-17-26(3)23-27(4)37(59)24-32-14-11-10-12-15-32)28(5)40(61)55-35(46(67)68)19-20-38(60)58(9)31(8)43(64)52-30(7)42(63)56-36/h10-12,14-15,17-18,23,25,27-30,33-37,39,59H,8,13,16,19-22,24H2,1-7,9H3,(H,52,64)(H,53,65)(H,54,62)(H,55,61)(H,56,63)(H,57,66)(H,67,68)(H,69,70)(H4,49,50,51)/b18-17+,26-23+
INCHIAUX=N/A
LIBRARY_CLASS=1
SPECTRUMID=CCMSLIB00000001547
IONMODE=positive
CREATE_TIME=2019-10-30 21:18:25.0
TASK_ID=aa87bf9cd0784df9956753f435c32434
USER_ID=null
INCHIKEY_SMILES=IYDKWWDUBYWQGF-NNAZGLEUSA-N
INCHIKEY_INCHI=
FORMULA_SMILES=C48H72N10O12
FORMULA_INCHI=
URL=https://gnps.ucsd.edu/ProteoSAFe/gnpslibraryspectrum.jsp?SpectrumID=CCMSLIB00000001547
PARENT_MASS=980.5327235480092
INCHIKEY=IYDKWWDUBYWQGF-NNAZGLEUSA-N
289.286377 0.010552985325490535
295.545288 0.029439271284186348
298.489624 0.005133920104431129
317.324951 0.02451463199929891
319.655945 0.011254076070961894
324.482422 0.010517669187192538
325.316284 0.012737353879477793
339.789429 0.021117742697080402
343.947021 0.023667044680146968
347.020508 0.018287219612752002
347.913391 0.008848654651331615
361.147705 0.01538606425182761
361.84436 0.031779292447709225
364.232727 0.003068580016559345
364.858154 0.014102911227000366
365.845886 0.013396588461040413
368.22168 0.016691453363731373
368.965698 0.025044374073768874
375.069519 0.020462432130884226
375.751953 0.03321417406670565
382.750549 0.016696685384219964
384.197083 0.02342898774791602
390.574219 0.01045488494132943
394.049194 0.02110466264585892
397.106262 0.018293759638362744
404.420715 0.016122471135596967
411.092712 0.003071196026803641
413.784546 0.011399264639520328
427.667358 0.08912354500780226
436.192749 0.01946180821244096
443.266113 0.058110743561671785
446.267273 0.030701496227059224
447.747498 0.03831408603796092
455.25 0.0927885753600611
456.107544 0.13785327583342816
456.822144 3.924015366444175e-06
457.543213 0.016823561881068327
464.285461 0.011271080137549818
469.872314 0.11457340066943703
471.062195 0.04117861725546517
475.257324 0.020207371132065353
476.143616 0.030271162541872513
476.975159 0.0371865856226693
478.891113 0.03648026285670935
479.975952 0.04347155023459072
483.242432 0.01774178147681626
487.210388 0.043013748441838896
488.160156 0.02718819446896954
491.191956 0.07203576609206001
494.279602 0.009725018083170814
495.653992 0.042128228974144664
498.412964 0.015282731847177914
503.028198 0.040081200957982954
503.699951 2.6160102442961167e-06
504.344543 0.04763885455375443
505.154541 0.01264448551580528
510.176514 0.050869627205460136
512.168701 0.013308952117856494
513.265381 0.021613476638374516
514.957397 0.014890330310533497
515.922852 0.10302371544086966
520.973389 0.03774510380982652
521.82373 0.007599509759680219
523.168945 0.07707550982769648
529.036865 0.027104482141152065
530.991211 0.04165342311480492
532.376709 0.003930555392054915
534.575195 0.01688111410644284
538.003174 0.28900242373349133
539.217773 0.3561645627404277
540.672852 0.057390032739368206
548.061401 0.017860809942931738
554.117432 0.09970269043573575
556.030396 0.2804637662961088
557.288818 0.06928503132018266
557.996094 0.008112247767562258
559.942261 0.023690588772345634
561.328735 0.019170123070201942
564.123047 0.033970201027307224
564.94873 0.04529621737998726
566.439941 0.046517894164073544
571.33374 0.08018725401328672
572.047363 0.022543468280221784
575.219238 0.055102331780731255
575.888916 7.84803073288835e-06
577.102905 0.03865155135947512
579.645874 0.009353544628480766
580.942627 0.02303266219590516
582.110107 0.13351462284326304
583.458984 0.013227855800283314
585.237061 0.048100580361872695
598.172485 0.034119313611232105
599.352783 1.0
600.382812 0.1494618212924922
601.06665 5.232020488592233e-06
602.267578 0.035504491035586894
609.302002 0.013403128486651154
613.415771 0.01127631215803841
622.208984 0.031113517840535863
623.023193 0.08363384751014685
623.991455 0.025053530109623908
625.216187 0.030149518065512745
638.299561 0.016325211929529918
640.265625 0.02274882508439903
641.235107 0.08616222141125905
646.095947 0.010999015072143023
649.2771 0.007123395895218326
651.526611 0.02291755774515613
657.128906 0.016887654132053582
658.094971 0.019389867930722816
659.420898 0.05489566697143186
663.387695 0.0239155656533551
668.33252 0.08593593652512743
669.357178 0.007417697047701639
680.219727 0.05804141929019794
681.987793 0.031975493216031436
685.957764 0.025069226171089688
691.648682 0.0381636654489139
693.22583 0.043877031822456614
694.307861 0.029481127448095088
696.332397 0.1585446088606883
697.127808 0.012429972675772998
709.464478 0.026383771318848486
710.79541 0.02922868245952051
711.744873 0.04273906736618781
714.071777 0.06603725460188901
715.578979 0.0713739155002531
716.216553 1.0464040977184467e-05
723.267822 0.01885489383576426
724.081909 0.11577153336132465
725.488892 0.011078803384594054
728.352051 0.02814565421838192
735.806396 0.0680450424643863
738.34668 0.0035276898144333134
744.365234 0.021196223004409286
747.456055 0.02520264269354879
753.27124 0.018461184293997696
761.609131 0.016183947376337927
764.462158 0.025997909807814808
765.280029 0.0240162820477605
769.275635 0.0549349071250963
770.328613 0.021644868761306068
771.386353 0.018019078562711652
787.432617 0.04316809304625237
796.139526 0.012605245362140837
797.232788 0.014809233992960316
806.556885 0.02437990747171766
808.442383 0.008312372551250911
811.637329 0.01921067122898853
812.300049 0.01295448272975437
813.149292 0.020874453744360862
817.219238 0.009993159133211166
820.274048 0.008169799992936773
821.288208 0.020393107859410377
823.361328 0.01791051413757336
824.618286 0.009018695317210862
828.517456 0.04202882058486141
830.409302 0.13417908944531426
831.306763 0.08540488644553532
832.105469 0.012722965823134163
833.18457 0.00538244107763926
835.212891 0.009948686959058132
836.078247 0.01143196476757403
838.518677 0.03421741399539321
839.455811 0.09418421682539309
845.612915 0.028222826520588655
847.433594 0.25697330230745186
848.125854 0.05184539902658259
851.380859 0.32199162091918754
852.370605 0.3621630742305987
853.270508 0.057834754480898545
865.5979 0.058463904944651764
866.295654 0.14520426461990024
867.19043 0.005388981103250001
868.372192 0.10205448364535795
869.331177 0.011227915968518933
871.557007 0.007029219526423666
877.137451 0.039411502335443147
880.216553 0.007445165155266748
883.442261 0.06440748021969254
884.216553 1.0464040977184467e-05
888.167114 0.05367660619758987
889.282959 0.03243198700366111
892.127808 0.01952197644805977
893.467896 0.03074596840121226
895.607422 0.01716495121794897
899.010132 0.03745211066246536
901.351196 0.01762144500557864
902.325562 0.004936411330986772
909.424438 0.31933113850073835
910.515381 0.057251384196420514
911.526367 0.019892141897627672
914.30896 0.008543889457871117
915.217773 0.037219285750723
918.666138 0.0073379087352506076
919.39624 0.1122647716288457
920.06665 3.924015366444175e-06
921.123901 0.021141286789279068
922.205688 0.04952499793989193
925.063721 0.056760882275614995
931.132812 0.08074577220044393
932.351929 0.17874805597738722
933.524048 0.03296434508837537
935.493286 0.04433614162033059
936.552002 0.13489456824712925
937.588623 0.08842768628281948
938.471069 0.04627591321647616
939.61792 0.10109440788570129
946.257812 0.05046806963296068
949.370239 0.11172979753388715
950.284546 0.007816638609956796
951.551758 0.03923361363883101
953.396606 0.7132303410100154
954.491577 0.1621102308236639
963.686768 0.3421453638412448
964.524658 0.4161601416831148
965.192139 0.1627223772208292
982.221924 0.03550841505095334
END IONS

BEGIN IONS
CHARGE=1+
SPECTRUM_ID=CCMSLIB00000001548
SOURCE_FILE=20111105_Anada_Ger_HoiamideB_MH940_qb.1.1..mgf
TASK=47daa4396adb426eaa5fa54b6ce7dd5f
SCAN=-1
MS_LEVEL=2
LIBRARY_MEMBERSHIP=GNPS-LIBRARY
SPECTRUM_STATUS=1
SPLASH=splash10-00dl-0000011189-0000011189
SUBMIT_USER=mwang87
COMPOUND_NAME=Hoiamide B
ION_SOURCE=LC-ESI
COMPOUND_SOURCE=Isolated
INSTRUMENT=qTof
PI=Gerwick
DATA_COLLECTOR=Amanda
ADDUCT=M+H
PEPMASS=940.25
EXACTMASS=939.452
CAS_NUMBER=N/A
PUBMED_ID=N/A
SMILES=CCC[C@@H](C)[C@@H]([C@H](C)[C@@H]1[C@H]([C@H](Cc2nc(cs2)C3=N[C@](CS3)(C4=N[C@](CS4)(C(=O)N[C@H]([C@H]([C@H](C(=O)O[C@H](C(=O)N[C@H](C(=O)O1)[C@@H](C)O)[C@@H](C)CC)C)O)[C@@H](C)CC)C)C)OC)C)O
INCHI=InChI=1S/C45H73N5O10S3/c1-14-17-24(6)34(52)26(8)37-25(7)30(58-13)18-31-46-29(19-61-31)39-49-45(12,21-62-39)43-50-44(11,20-63-43)42(57)48-32(22(4)15-2)35(53)27(9)40(55)59-36(23(5)16-3)38(54)47-33(28(10)51)41(56)60-37/h19,22-28,30,32-37,51-53H,14-18,20-21H2,1-13H3,(H,47,54)(H,48,57)/t22-,23-,24+,25-,26-,27+,28+,30-,32-,33-,34-,35-,36-,37-,44+,45+/m0/s1
INCHIAUX=N/A
LIBRARY_CLASS=1
SPECTRUMID=CCMSLIB00000001548
IONMODE=positive
CREATE_TIME=2019-06-04 02:55:49.0
TASK_ID=cd4ed49954b94767a54918c340d18fa1
USER_ID=null
INCHIKEY_SMILES=KNGPFNUOXXLKCN-ZNCJFREWSA-N
INCHIKEY_INCHI=KNGPFNUOXXLKCN-ZNCJFREWSA-N
FORMULA_SMILES=C45H73N5O10S3
FORMULA_INCHI=C45H73N5O10S3
URL=https://gnps.ucsd.edu/ProteoSAFe/gnpslibraryspectrum.jsp?SpectrumID=CCMSLIB00000001548
PARENT_MASS=939.2427235480093
INCHIKEY=KNGPFNUOXXLKCN-ZNCJFREWSA-N
278.049927 0.00032721414631417165
278.957642 0.00043508794640098266
281.258667 0.0008730007236686454
291.996094 0.0010538538920684235
293.827637 0.0008387827886072103
299.065979 0.001179663996881533
309.152832 0.0005756987022599013
324.236206 0.0002848325414665059
334.968811 0.0010570443968337029
341.283569 0.0002792560145128657
343.978516 0.0008604672507941523
353.147217 0.0018796643991228215
353.84436 9.141847464983982e-09
359.101166 0.005314951272124642
359.888855 1.6455325436971167e-07
368.931641 0.00036904724031393835
375.024811 0.001750874052036127
375.664062 3.5653205113437527e-07
377.287628 0.00854039617841522
378.192047 0.002702860337802234
380.225586 0.0009127951856837206
381.088074 0.00026505872539974557
383.194763 0.0011524578588257407
384.326294 0.0010964274757128537
390.16333 0.0012147321237572116
391.216492 0.0013955030155298049
397.480957 0.0004515524136854188
405.885986 0.0001380053293313982
408.151367 0.00046570399356121397
408.941162 0.013913133068366026
410.069397 0.002148590126000255
412.908936 0.00017847628805888228
415.317749 0.0003732799156902259
416.189331 0.0010640744775342755
421.346222 0.007518657596491286
422.236237 0.0037145063201248266
425.736572 0.00030415840700748204
430.427429 0.001053607062186869
431.030762 0.0013985746762780395
436.663208 0.0002821814057016606
453.213257 0.0019715948172307003
453.853271 1.8283694929967963e-08
456.716797 0.0011484080203987529
457.249573 0.006566817580284619
458.258514 0.0011062823872801065
459.323029 0.0003878154531595505
462.352295 0.00048642856176433266
468.064392 0.0005129764868026462
471.292297 0.0009247710058628496
472.837769 0.00015971721706073514
475.22522 0.009753427918543944
476.323944 0.008519177950448993
477.293152 0.002874333970702939
481.310425 0.00019193308752733868
486.095825 0.00032909736689195837
488.752777 0.0008940086891431786
490.151245 0.0017314384843255713
491.134399 0.00034861521122969913
492.823486 0.0015338283095224774
493.837646 0.0011248129120916292
499.340332 0.0006301384039138809
500.92627 0.0003217198959877163
502.819702 0.003169222544380927
503.328186 0.016357425392468653
503.844055 0.0010562856234941091
504.448425 0.0019161403705081075
505.521667 0.001924413742463918
506.153992 0.0002156196143091122
507.28186 0.016054080609885554
508.139343 0.008416515003417223
508.715088 4.570923732491991e-08
509.322998 0.0006200458043125385
510.159729 0.0011440473591579554
511.108826 0.00041104488756807476
513.214233 0.0005836978187917622
514.097351 0.0014434337217887159
515.079712 0.0006989856571726753
518.323853 0.0002926671047439972
519.041016 0.002202545309738591
521.166443 0.022617342011506295
522.086304 0.004437233355164065
522.963379 0.002652744729999192
529.374146 0.0009727931305964104
530.899231 0.00660867809982678
532.089783 0.0017365122096686372
532.834473 0.0006525176465081617
534.093506 0.0007274807957210303
535.231201 0.004874314224312414
536.079834 0.0018828366201931708
536.935913 0.00017932647987312577
537.806885 0.003910617231943663
538.545166 1.2798586450977574e-07
539.760132 0.0016926587673791091
543.283936 0.0010520620899652866
545.483398 0.0004851487031192349
553.24353 0.09708376894236503
554.189453 0.011570717492413181
555.107849 0.008097263406245052
556.199341 0.00032595257136400387
557.188904 0.001322907604810367
558.325073 0.002528890980543589
559.441162 0.00035078182907890036
563.392944 0.0033750512400550414
564.342773 0.00048796439213845
565.162598 0.00140107040063598
567.527832 0.0008276114510049999
569.09668 0.00012255560711557526
573.235718 0.002236680968172841
573.872803 4.388086783192311e-07
575.213562 0.007737074616124683
576.479736 0.0007243085746506809
582.099854 0.0007848824559536648
583.982666 0.0003123129349462478
584.817871 0.0001612804729772474
585.449829 0.0011555569451163702
587.480713 0.0002784058226986222
589.125 0.0018537289778646619
589.857056 2.7425542394951945e-08
591.335327 0.00296769965886282
593.54541 0.0005473498332709859
599.153564 0.00036105726562954236
601.312927 0.007070899049503835
602.344727 0.0009507247108159391
605.229919 0.003571692379026847
606.044434 9.141847464983982e-09
607.083252 0.004005098225494272
607.802979 2.925391188794874e-07
611.162537 0.001157403598304297
613.219177 0.011689945467051502
614.208252 0.001230483526939379
614.943481 0.0002997886039192197
616.26123 0.000323008896480279
617.239929 0.010804932355813868
617.832764 3.259982806013288e-05
619.109741 0.005586537276614386
620.09021 0.0019720793351463446
623.606201 0.0003007027886657181
625.371094 0.0014853033831783425
629.113037 0.0036317177494819314
631.285767 0.007654112350379954
632.427246 0.0039012742638344492
633.305969 0.0070754334058464674
634.005371 0.0012773446370448868
635.159546 0.0009526902080209107
638.429932 0.0004590578704541706
639.142578 0.00192905780097613
640.06665 0.0
644.970947 0.001155145561980446
645.833496 0.0036607339733357907
646.540649 1.1884401704479176e-07
647.614746 0.00026165795814277155
649.493652 0.0008416259031688203
651.267822 0.026987693610616537
652.501709 0.008667358156008918
653.303345 0.0023904925517711966
655.203003 0.0003035184776849332
656.197632 0.0005768414331930242
657.307983 0.02767469430576262
658.356934 0.005278210187162871
659.635254 0.0007857326477679082
661.488525 0.004392584572145084
662.373413 0.0006956397410004911
663.271667 0.050539149596094894
664.294983 0.017307354762555138
665.272827 4.388086783192311e-07
671.457947 0.005342102559095644
672.555908 0.00032785407563672056
675.252808 0.027999385302176456
676.276123 0.01050417471606336
677.002197 5.210853055040869e-07
679.320496 0.0031761520647593847
688.130615 0.0030758842817634404
689.338928 0.050349081445450417
690.380371 0.00859210246767717
691.865601 0.001168355531567348
693.103333 0.004036116513942963
694.241089 0.0016220745631019679
694.866699 2.7425542394951945e-08
706.645874 0.0069850936691974955
707.298584 0.1044513757931924
708.41217 0.030005719139774095
709.281738 0.0003421336413770255
710.297302 0.0009557618687691453
711.575684 0.0005466276273212522
714.353027 0.0026855365368560896
720.310608 0.004239678031445761
723.610229 0.0006176140728868529
724.423279 0.003045880738383363
725.338684 0.02465688818094422
726.246155 0.004369218010024584
727.232544 0.0037239955577934797
727.836182 2.102624916946316e-07
731.005493 0.0005354288641766468
733.947266 0.000389808375906917
734.489502 0.0029486663324407233
735.21875 2.742554239495195e-07
736.155151 0.0014729436054056841
738.186523 0.011905866762326958
738.97168 0.0017186124723321987
739.817383 0.001658395123080349
740.513184 5.576526953640229e-07
743.460449 0.0016207215696771502
744.158691 0.0002381542683102977
746.365784 0.006115128038887225
746.917114 0.00041584435748719134
749.86853 0.0003096160899440775
752.247192 0.011642773534132185
753.092773 0.0011355637247104503
753.863403 0.0003864258923448729
754.550781 0.0004932758055156057
756.299866 0.0007633259796312325
758.105103 0.0006585695495299811
760.394287 0.0026124474663735426
761.139648 0.0008456757415958083
762.440063 0.004454401744703305
763.821289 0.001086700550010111
764.401733 0.0007198839204776286
765.879333 0.002232658555288248
766.875977 0.0009504595972394546
768.550537 0.003283907020829151
769.536011 0.0006537060866786096
770.24707 0.06255784503983469
771.345947 0.01676786691810404
772.112915 0.0026610181019550024
772.859253 0.000902867139336748
773.393433 0.000142100876995711
774.196289 0.0008186707241842455
775.369934 0.001488420753163902
776.830322 0.00036555505458231446
778.437683 0.005195193070333352
779.430786 0.003542868133969752
780.564697 0.0008830201884902678
782.339478 0.0013408713350790606
786.388916 0.0003044326624314316
788.550964 0.001636811221215522
789.33606 0.006880401232028499
790.289795 0.02123926335724475
791.421265 0.004493894525752036
792.208252 0.004281282579258903
792.876465 9.141847464983982e-08
793.950195 0.0014507746253030979
795.489502 0.0003537712131999501
796.091187 0.008729623279092925
797.200439 0.0030841576537192507
798.289185 0.0004250501978844302
800.432495 0.0010224242204838086
801.090576 1.6455325436971167e-07
802.506714 0.0010407170572612414
803.42688 0.0034988227128834593
804.150146 0.002789451916990562
805.09314 0.0006662852687904275
805.733887 0.00023650873576660058
806.318115 0.001480887870852755
807.514771 0.0006423610539745644
808.27356 0.19262333357833483
809.333984 0.036991489305684
810.207275 0.002370883288958806
811.469727 0.0002548107143914985
812.310425 0.0017102751074441333
813.238647 0.0006414103018382061
814.210083 0.004227437097690147
814.969604 4.570923732491991e-08
818.325684 0.002282161659311136
819.179932 4.570923732491991e-08
821.257446 0.021952949105141117
822.402405 0.012090312676780476
823.065796 0.0002435296746197083
826.38385 0.011482443813291296
827.219849 4.570923732491991e-08
828.190063 0.022776081050888276
829.269775 0.00379516484030838
832.262146 0.004169797749423424
833.509155 0.0019354570942016187
834.274414 7.313477971987185e-08
836.505859 0.000986688738743186
837.125854 3.6567389859935927e-08
837.99231 0.00017093426390027048
839.326721 0.02250980645977569
840.278259 0.08005338473245652
841.229004 0.015170658180106829
842.093811 0.002381762087442137
843.241211 0.0021423645278766013
844.313904 0.0199944911227176
845.152466 0.0007615433193755607
846.27002 0.025426037517410648
847.444214 0.011010157689555293
848.088745 2.7425542394951945e-08
850.265015 0.008434387315211267
851.186401 0.0010624837960753683
854.273743 0.009292660522613823
855.291382 0.0009357960739056203
858.455566 0.006422796915321261
860.296204 0.023040856379016608
861.256592 0.0048515784496669994
862.471863 0.016996230267779338
863.435181 0.005023737721127577
864.379272 0.004049847568835369
865.002441 0.0006450304734343398
866.333496 0.00011531526392330795
868.264954 0.0012281157884459482
871.557007 0.0011296123820107456
872.289917 0.1710152241014204
873.345642 0.024850110268964123
874.043213 0.002887297110408286
876.373779 0.04967687225950267
876.880249 1.7369510183469566e-07
877.403809 0.015269956927271485
878.322937 0.09899251355827397
879.327148 0.019338335020918376
880.158447 0.001043285916398902
886.277527 0.023954620600531617
887.16687 0.004988715303489224
887.893188 4.570923732491991e-08
890.246277 0.5107195475004909
891.272888 0.12347332061519514
892.020142 6.856385598737986e-07
893.624634 0.0004100575680418565
894.326416 0.17312991625702048
895.376404 0.04675250495762388
896.202576 0.008957922635835969
897.012695 0.0020701256492082977
904.195679 0.42173287741111654
905.224548 0.11106008131856157
906.084473 1.1884401704479176e-07
906.811646 0.00011732647036560442
908.183472 0.16352987939709152
909.235107 0.03956639120451885
910.25885 0.0005184798789765665
912.229492 0.0015441403134629794
913.382202 0.0005868243306247868
921.45813 0.008162271083568554
922.178101 1.0
923.155762 0.21442898009527267
924.007812 6.216456276189108e-07
940.099915 0.011557681217928113
940.88324 1.8283694929967963e-08
END IONS