BEGIN IONS
PEPMASS=353.233
CHARGE=1
MSLEVEL=2
SOURCE_INSTRUMENT=LC-ESI-Maxis II HD Q-TOF Bruker
FILENAME=JnJ_10uL_B8_GB8_01_2115.mzXML
SEQ=*..*
IONMODE=negative
ORGANISM=GNPS-COLLECTIONS-MISC
NAME=Eicosanoids_15kPGF1?_C20H34O5 M-H
PI=Dorrestein/Wu
DATACOLLECTOR=lfnothias
SMILES=n/a
INCHI=n/a
INCHIAUX=N/A
PUBMED=n/a
SUBMITUSER=mwang87
LIBRARYQUALITY=1
SPECTRUMID=CCMSLIB00001058175
SCANS=492
87.007996	261.0
89.022697	314.0
96.273048	151.0
96.963608	581.0
102.955368	242.0
104.949806	226.0
111.083214	216.0
112.986023	8493.0
113.103653	195.0
113.988251	304.0
114.989845	524.0
116.75956	265.0
118.987183	278.0
122.251839	93.0
122.974686	130.0
127.034119	247.0
129.06218	146.0
129.976685	162.0
130.996292	642.0
132.661606	207.0
132.865341	309.0
132.993637	177.0
134.863937	475.0
138.015762	155.0
140.98114	583.0
142.974106	280.0
143.111435	282.0
144.039963	789.0
144.987274	300.0
146.959961	488.0
148.944733	362.0
149.003098	473.0
149.988403	142.0
150.983704	207.0
152.922485	199.0
153.94043	203.0
156.988129	276.0
158.976974	612.0
159.065704	278.0
159.946793	175.0
159.979248	293.0
161.006302	333.0
161.087357	277.0
164.949631	280.0
166.703156	159.0
168.988937	288.0
170.771835	259.0
170.932983	291.0
171.687561	99.0
171.836121	107.0
172.870804	126.0
173.467758	219.0
174.954742	4491.0
175.320251	134.0
175.764587	208.0
176.992432	145.0
177.228226	184.0
177.848923	204.0
178.991348	221.0
180.969955	1173.0
182.744522	107.0
185.045624	209.0
185.182327	166.0
187.004379	375.0
187.09433	186.0
187.134354	130.0
187.689346	66.0
187.757721	138.0
188.886871	228.0
189.010803	380.0
190.886398	192.0
190.924911	613.0
191.017838	327.0
193.087402	260.0
194.985275	380.0
196.979004	213.0
199.934509	549.0
201.009506	205.0
202.164581	150.0
202.963669	208.0
202.991928	227.0
204.312271	149.0
205.155319	189.0
205.956009	106.0
206.990616	258.0
209.868927	124.0
216.962753	290.0
217.144119	120.0
218.833084	208.0
219.010773	333.0
219.52272	99.0
221.03981	213.0
223.022293	266.0
223.061874	222.0
224.926056	240.0
225.18895	139.0
228.898041	226.0
229.140228	100.0
229.755981	108.0
231.003372	395.0
232.911255	250.0
232.955551	181.0
232.983261	381.0
233.013657	320.0
236.99971	220.0
239.05864	3019.0
240.061813	615.0
240.910019	680.0
241.908188	179.0
242.942825	1900.0
242.994507	252.0
244.946869	293.0
244.985962	383.0
246.497192	187.0
246.933395	380.0
247.01683	187.0
247.251083	165.0
248.957474	950.0
249.806412	161.0
251.125656	262.0
251.807816	197.0
254.184616	125.0
254.903976	293.0
255.229507	181.0
255.92485	140.0
256.932068	134.0
257.546326	246.0
258.974091	450.0
259.003418	529.0
260.473511	58.0
260.91629	221.0
260.998779	182.0
261.986725	170.0
263.018463	127.0
264.016022	229.0
265.002899	377.0
265.922333	204.0
266.934174	250.0
267.124664	120.0
268.066193	176.0
268.167816	147.0
268.995148	378.0
269.025574	171.0
269.141632	234.0
270.975128	226.0
271.017242	295.0
272.886658	205.0
273.007477	168.0
274.995331	778.0
277.00589	508.0
277.99295	198.0
280.999023	1696.0
281.997528	119.0
282.973846	252.0
283.087494	420.0
283.123718	245.0
283.974609	479.0
284.999237	505.0
285.12262	193.0
287.012115	289.0
287.03656	256.0
287.191406	221.0
288.371948	59.0
288.935028	326.0
288.975555	487.0
289.007324	388.0
290.989838	505.0
291.010986	536.0
292.02594	163.0
292.986084	222.0
294.006592	300.0
295.008087	435.0
295.0513	312.0
296.135895	269.0
296.997253	1391.0
300.868683	167.0
301.01712	736.0
301.088287	196.0
303.007263	363.0
303.712769	164.0
303.974701	82.0
304.854156	272.0
304.916168	405.0
304.981171	210.0
306.925201	132.0
306.978912	225.0
307.019684	501.0
308.916534	299.0
308.999451	519.0
309.040894	397.0
309.136627	284.0
309.991241	157.0
310.932068	716.0
311.004059	445.0
312.057922	114.0
312.863281	188.0
312.993103	189.0
313.110931	157.0
315.024445	502.0
315.996674	83.0
316.82196	138.0
316.948486	1490.0
317.032501	285.0
317.156342	227.0
317.210358	223.0
317.647949	316.0
317.957489	334.0
318.97821	314.0
319.040344	117.0
319.993622	207.0
321.006592	425.0
322.892975	146.0
324.011993	217.0
324.088287	177.0
324.541412	208.0
325.003235	672.0
325.077118	233.0
325.178925	212.0
326.296295	157.0
326.900848	410.0
327.002563	425.0
328.000305	62.0
329.013458	199.0
330.040222	179.0
330.848877	245.0
331.01236	372.0
331.99292	141.0
333.015228	485.0
334.989624	149.0
335.222778	764.0
335.379791	149.0
335.917908	221.0
336.998627	320.0
337.023193	375.0
339.007019	863.0
340.954712	240.0
341.000824	115.0
341.995453	232.0
342.983551	418.0
343.012177	556.0
344.046814	105.0
344.085083	68.0
344.987518	683.0
346.006989	393.0
346.966553	171.0
347.023071	124.0
348.924774	254.0
349.001862	290.0
349.921021	51.0
350.938538	283.0
351.00769	626.0
351.042664	288.0
351.172119	159.0
352.903778	161.0
352.969635	160.0
353.03299	242.0
353.2341	55738.0
353.374573	201.0
354.238831	14983.0
354.990845	170.0
355.23999	2231.0
356.040802	239.0
356.238037	236.0
356.379028	173.0
356.723602	155.0
356.984131	420.0
357.054901	192.0
357.390045	135.0
357.975037	221.0
359.007782	448.0
359.054443	128.0
359.901123	104.0
360.913086	434.0
361.009796	583.0
362.892761	205.0
362.958374	176.0
362.999512	231.0
364.91507	125.0
365.005554	363.0
365.587708	123.0
366.98172	343.0
367.023712	248.0
368.889465	176.0
368.989624	333.0
369.016174	340.0
369.623962	171.0
370.002228	92.0
370.513733	110.0
370.586731	116.0
371.024231	520.0
371.912994	61.0
371.958191	209.0
372.814606	84.0
372.898926	512.0
373.010193	893.0
373.543152	113.0
374.021118	203.0
375.323242	98.0
376.999817	690.0
377.145996	88.0
378.906403	843.0
378.925293	810.0
379.026581	439.0
380.022888	126.0
380.897034	349.0
381.017792	342.0
381.998138	94.0
382.963379	333.0
383.012909	357.0
384.017792	106.0
384.37085	121.0
384.88205	168.0
384.93692	382.0
385.002106	137.0
385.038483	180.0
386.998535	185.0
387.16217	153.0
387.992889	167.0
388.871002	213.0
389.00827	951.0
389.11676	112.0
389.21286	865.0
390.207733	404.0
390.88504	95.0
391.002686	566.0
391.206787	839.0
391.40567	320.0
392.979889	153.0
393.215271	252.0
394.905884	376.0
394.95993	369.0
395.006958	439.0
395.261505	149.0
396.999023	221.0
397.060455	226.0
397.196838	180.0
398.989075	452.0
399.036926	291.0
399.239441	1105.0
400.239716	186.0
401.000061	499.0
403.003418	814.0
404.001923	226.0
404.998627	728.0
405.985443	183.0
407.043701	160.0
408.984863	668.0
409.87912	232.0
410.24585	166.0
411.010742	447.0
411.186584	594.0
412.024292	168.0
412.740509	53.0
412.944275	135.0
413.003082	252.0
413.044434	124.0
413.247498	243.0
413.778687	52.0
414.128937	156.0
414.8909	121.0
414.997589	718.0
415.056244	188.0
417.008575	380.0
419.002136	518.0
419.03595	429.0
420.994202	339.0
421.053467	247.0
421.219421	6595.0
422.225098	658.0
423.228333	652.0
424.012604	586.0
424.245148	350.0
424.973297	84.0
425.079956	225.0
426.002533	139.0
426.838715	214.0
426.984741	242.0
427.024231	321.0
429.005188	255.0
430.17865	265.0
430.69455	108.0
432.006805	260.0
433.016663	806.0
434.236847	255.0
434.864044	129.0
434.998718	303.0
436.273773	99.0
436.87204	622.0
436.99707	894.0
437.04834	153.0
437.150391	368.0
438.993927	193.0
440.154358	237.0
440.53006	51.0
440.892639	600.0
440.977142	237.0
442.398987	148.0
443.006256	268.0
443.114136	118.0
443.866852	186.0
444.822357	206.0
445.005768	510.0
446.904663	830.0
447.009766	469.0
447.044434	491.0
448.391418	219.0
449.009216	166.0
449.05014	130.0
449.21286	297.0
449.32785	99.0
450.657196	189.0
450.979034	262.0
451.209137	423.0
451.337494	52.0
452.159882	83.0
452.848663	544.0
452.932709	895.0
453.019592	399.0
453.148346	131.0
454.735626	105.0
454.889648	289.0
455.011322	1009.0
456.306213	200.0
456.983551	261.0
457.032196	238.0
457.280487	198.0
457.850098	226.0
458.110657	454.0
458.298157	216.0
459.015625	815.0
459.968079	134.0
460.151917	140.0
461.014252	525.0
462.147705	234.0
462.216492	201.0
462.906586	160.0
463.006622	358.0
463.215057	358.0
464.681366	168.0
464.974274	155.0
465.024841	476.0
465.236908	157.0
465.629608	153.0
467.341614	251.0
468.985168	298.0
470.037354	80.0
470.991241	172.0
472.110992	154.0
472.213501	431.0
473.161316	579.0
474.997467	178.0
475.049835	461.0
475.860504	163.0
478.789368	207.0
478.837128	204.0
478.940399	101.0
479.053375	100.0
479.166962	208.0
480.202454	200.0
481.18985	292.0
481.891449	87.0
483.014435	404.0
483.184357	132.0
483.227905	302.0
485.005859	299.0
485.190979	260.0
486.179993	83.0
487.02179	238.0
488.424408	126.0
488.77359	190.0
489.011261	613.0
489.108551	210.0
489.201996	1965.0
489.411072	83.0
490.216095	731.0
490.26059	166.0
492.202728	245.0
492.888824	141.0
492.997223	224.0
493.04129	203.0
493.19632	212.0
494.006042	244.0
494.997253	109.0
495.032806	202.0
495.819214	276.0
496.878326	340.0
496.995331	210.0
497.029755	299.0
498.863831	188.0
499.009888	90.0
499.296997	183.0
500.69397	104.0
501.018158	162.0
501.319427	110.0
502.85614	169.0
503.021912	482.0
503.225006	213.0
504.847534	78.0
505.2836	119.0
506.827576	239.0
506.905212	126.0
506.984711	126.0
507.03479	243.0
507.185394	189.0
508.868652	472.0
508.991425	382.0
510.988403	267.0
511.187927	129.0
511.245758	174.0
512.877197	373.0
512.990906	426.0
514.291748	146.0
514.701477	267.0
514.897644	227.0
514.995972	216.0
516.017578	170.0
516.076172	132.0
517.024048	404.0
517.533203	180.0
520.919128	455.0
521.02002	152.0
521.89679	122.0
524.897278	242.0
525.005859	208.0
525.880005	140.0
526.998535	407.0
527.999268	228.0
528.812012	57.0
529.024841	315.0
529.85498	344.0
532.993042	244.0
533.179077	120.0
534.965881	146.0
537.002258	367.0
537.081787	159.0
537.913635	139.0
538.951477	179.0
538.997925	210.0
540.925842	191.0
541.036072	123.0
543.04364	169.0
545.008423	336.0
546.004395	220.0
546.970886	180.0
547.02063	185.0
547.353271	334.0
548.997253	545.0
549.150024	240.0
549.850525	199.0
549.997253	110.0
551.18811	681.0
552.18335	348.0
553.290588	315.0
554.859985	193.0
555.034241	130.0
556.058899	174.0
556.432556	159.0
556.865295	209.0
557.201172	620.0
557.268799	139.0
558.197388	349.0
558.408813	124.0
559.029114	548.0
559.075928	121.0
561.004944	186.0
561.085632	108.0
561.869568	140.0
562.859802	232.0
562.99646	312.0
564.065063	254.0
564.864258	78.0
564.936768	150.0
566.835205	277.0
567.073242	199.0
570.01062	124.0
570.084961	104.0
570.998352	165.0
571.042175	428.0
572.792969	184.0
572.876404	68.0
573.88147	203.0
574.161499	244.0
574.954529	167.0
575.035278	193.0
575.511536	223.0
576.844849	233.0
577.003784	96.0
577.327942	355.0
579.332153	301.0
580.241394	304.0
581.768311	243.0
582.876221	277.0
583.004761	159.0
584.796021	154.0
585.009949	80.0
585.81781	254.0
588.991699	230.0
589.147095	202.0
589.66095	53.0
590.827698	153.0
592.796692	106.0
592.84082	258.0
592.997559	277.0
594.058899	290.0
595.085632	215.0
596.033264	169.0
597.801453	170.0
598.888062	189.0
600.972778	327.0
604.828674	354.0
607.009583	127.0
609.024292	86.0
612.13092	337.0
613.543579	227.0
614.075134	150.0
615.843079	58.0
616.402405	73.0
617.036682	63.0
617.185303	343.0
617.762268	219.0
617.980652	74.0
618.058044	131.0
618.315979	112.0
618.848206	56.0
619.156067	262.0
619.185364	293.0
619.227844	180.0
619.276794	309.0
620.118591	62.0
621.010315	67.0
621.314758	88.0
621.452942	344.0
623.03064	235.0
624.068054	238.0
625.183655	118.0
625.340515	263.0
626.322754	239.0
627.364685	76.0
629.079468	106.0
629.914368	303.0
630.982117	194.0
631.089294	142.0
631.896606	335.0
632.010925	109.0
633.248718	72.0
633.322876	131.0
634.991821	137.0
635.764648	124.0
636.745911	198.0
637.238892	294.0
638.822205	212.0
639.001221	354.0
639.051636	128.0
641.152222	175.0
642.826294	62.0
644.851746	697.0
645.312683	199.0
646.990906	153.0
649.30365	183.0
651.021851	334.0
651.099976	164.0
651.141052	164.0
651.744812	238.0
652.401428	135.0
653.046936	242.0
654.843323	207.0
655.996216	343.0
656.852112	163.0
656.958923	143.0
656.999756	260.0
658.0224	275.0
658.114563	205.0
658.926208	154.0
659.064026	198.0
659.320862	250.0
659.384338	62.0
659.446594	257.0
660.446716	138.0
660.8125	66.0
660.997559	176.0
661.038513	549.0
661.332031	253.0
663.030334	106.0
663.777771	208.0
665.065491	290.0
666.01886	2232.0
666.908203	163.0
667.009338	255.0
668.055664	215.0
668.83783	185.0
668.993469	105.0
669.083557	154.0
675.062744	121.0
675.995667	293.0
677.001953	142.0
677.237732	217.0
679.057068	146.0
681.152771	132.0
682.0	185.0
682.691772	282.0
682.989258	339.0
683.871338	149.0
684.045837	275.0
686.894592	305.0
687.153748	132.0
688.306213	226.0
689.290894	323.0
691.005676	201.0
691.070862	224.0
692.75592	178.0
693.007019	257.0
695.065491	364.0
697.00415	267.0
699.783875	110.0
702.806152	475.0
706.993286	118.0
707.466064	1704.0
708.479431	816.0
712.799561	71.0
713.044617	158.0
717.239014	207.0
718.974121	293.0
720.87384	233.0
720.985291	135.0
722.074829	167.0
724.881226	313.0
726.052124	231.0
729.117676	135.0
729.463135	340.0
729.799561	229.0
729.931458	180.0
730.479797	371.0
731.399658	177.0
731.545898	140.0
735.004395	66.0
737.024841	233.0
739.002075	177.0
740.348206	159.0
741.104553	130.0
741.261536	255.0
743.088013	160.0
744.880859	181.0
745.384094	171.0
747.018066	67.0
747.897949	90.0
748.352905	235.0
750.273865	271.0
752.821289	163.0
755.020874	209.0
755.981262	111.0
756.155396	220.0
759.062378	171.0
759.264771	383.0
760.943359	296.0
761.09491	161.0
762.164551	282.0
763.085938	272.0
765.365784	259.0
768.044861	192.0
770.004517	216.0
772.029175	167.0
773.048584	210.0
776.089294	104.0
780.813354	187.0
786.841125	329.0
787.791382	217.0
788.986755	186.0
790.043396	150.0
791.417297	412.0
793.393372	248.0
794.945251	121.0
797.444946	167.0
798.421509	95.0
798.568909	146.0
799.124878	197.0
800.396179	135.0
802.126648	186.0
803.125977	53.0
807.039185	125.0
809.018127	138.0
812.893127	197.0
813.093689	155.0
815.127197	187.0
824.306702	197.0
824.531372	165.0
830.915894	182.0
831.09021	339.0
832.846863	120.0
833.756042	333.0
835.93866	173.0
839.402344	318.0
839.606018	83.0
845.096558	202.0
845.824951	93.0
846.842285	148.0
848.831055	279.0
855.058167	74.0
859.399963	114.0
865.452759	212.0
869.257751	128.0
871.005005	147.0
871.221252	244.0
872.420044	96.0
880.023254	56.0
883.969482	84.0
884.11792	110.0
885.539307	222.0
887.187805	163.0
894.019226	462.0
894.91217	254.0
895.013489	355.0
895.997192	137.0
896.742737	113.0
897.147278	92.0
898.71106	130.0
903.042297	152.0
907.377441	202.0
909.886963	97.0
921.849792	217.0
923.141907	137.0
923.816162	152.0
928.735901	196.0
934.768005	94.0
935.064575	102.0
946.527649	258.0
947.026245	68.0
948.731201	128.0
951.829102	75.0
953.3573	129.0
953.75	103.0
954.93866	114.0
955.064514	126.0
955.375671	52.0
955.697266	114.0
955.964661	16713.0
956.524292	194.0
956.967224	4278.0
957.621277	291.0
957.969543	6386.0
958.204285	102.0
958.877441	158.0
958.961426	836.0
959.921753	202.0
960.014709	108.0
961.222595	211.0
961.487305	134.0
961.99408	84.0
962.492554	253.0
962.551453	216.0
964.091309	120.0
964.465149	118.0
964.573303	184.0
965.067078	189.0
965.31311	132.0
965.46283	104.0
965.725403	178.0
965.795715	287.0
965.995483	77094.0
966.18457	158.0
966.262207	155.0
966.423828	130.0
967.001038	14261.0
967.168213	323.0
967.993469	2137.0
968.505676	171.0
968.571289	102.0
969.000366	291.0
969.240723	52.0
969.997986	238.0
971.043335	104.0
971.186279	165.0
971.230774	154.0
971.720276	89.0
974.777283	59.0
975.364929	133.0
977.010254	199.0
978.180786	72.0
982.986023	4974.0
983.084717	197.0
983.631836	243.0
983.985107	734.0
984.846436	102.0
984.968933	261.0
985.741821	176.0
991.002625	82.0
998.977905	164.0
1001.976379	77.0
1002.382446	203.0
1003.812927	234.0
1008.016907	320.0
1012.355286	103.0
1017.970215	240.0
1020.99884	136.0
1023.038452	182.0
1023.963135	78.0
1032.179077	271.0
1033.098633	160.0
1033.977295	1436.0
1035.990723	164.0
1044.762817	156.0
1048.044067	158.0
1053.810913	113.0
1053.995972	154.0
1054.337646	114.0
1054.675293	346.0
1055.762939	141.0
1055.866089	794.0
1056.851562	339.0
1056.957397	248.0
1057.882812	65.0
1058.96228	106.0
1059.772949	149.0
1060.948975	299.0
1062.901855	170.0
1065.984009	131.0
1074.469849	153.0
1079.94165	219.0
1083.98999	141.0
1084.88269	102.0
1098.024414	50.0
1099.950928	155.0
1106.151611	157.0
1109.583496	92.0
1115.014282	261.0
1120.855835	216.0
1120.981201	58.0
1147.999023	149.0
1167.541016	152.0
1187.321777	253.0
1216.022705	272.0
1225.023438	143.0
1226.009888	218.0
1246.208984	142.0
1257.027588	78.0
1273.023071	109.0
1274.674438	72.0
1309.92981	125.0
1312.022827	173.0
1314.041138	65.0
1314.594482	110.0
1317.692627	135.0
1345.998901	246.0
1347.309326	298.0
1347.690674	207.0
1380.657715	175.0
1399.496948	77.0
1411.567017	210.0
1418.124268	126.0
1436.041504	168.0
1462.388672	65.0
END IONS


BEGIN IONS
PEPMASS=353.232
CHARGE=1
MSLEVEL=2
SOURCE_INSTRUMENT=LC-ESI-Maxis II HD Q-TOF Bruker
FILENAME=JnJ_10uL_B3_GB3_01_2587.mzXML
SEQ=*..*
IONMODE=positive
ORGANISM=GNPS-COLLECTIONS-MISC
NAME=Eicosanoids_8-iso-15kPGF2?_C20H32O5 M+H
PI=Dorrestein/Wu
DATACOLLECTOR=lfnothias
SMILES=n/a
INCHI=n/a
INCHIAUX=N/A
PUBMED=n/a
SUBMITUSER=mwang87
LIBRARYQUALITY=1
SPECTRUMID=CCMSLIB00001058176
SCANS=596
79.054993	176.0
81.071831	541.0
91.05558	1471.0
93.066986	169.0
97.067764	368.0
100.526466	310.0
102.323349	180.0
105.035217	522.0
105.072456	611.0
107.05098	152.0
107.08213	181.0
109.027458	172.0
115.054199	558.0
117.071159	594.0
118.079468	314.0
119.091988	540.0
120.090439	328.0
121.067108	323.0
128.064468	418.0
129.07074	1249.0
130.071472	206.0
131.084152	1879.0
133.065414	614.0
134.074036	224.0
141.069687	480.0
142.076782	677.0
143.058212	98.0
143.0867	1017.0
144.182053	69.0
145.105743	469.0
146.106125	263.0
149.095551	100.0
152.683319	81.0
154.075775	175.0
155.089249	1139.0
156.084747	241.0
157.103882	1045.0
157.128403	129.0
157.453781	173.0
159.082367	172.0
159.114914	392.0
163.107849	114.0
165.071884	80.0
168.096436	130.0
169.104828	100.0
171.118118	610.0
172.121017	233.0
173.098862	377.0
173.137177	189.0
173.363235	153.0
174.099808	207.0
175.07991	204.0
175.112991	341.0
179.110931	137.0
179.150391	112.0
181.076447	256.0
182.026276	144.0
183.117706	531.0
184.122284	382.0
185.096268	539.0
191.136963	97.0
193.09552	164.0
193.121216	201.0
199.128693	259.0
201.101089	182.0
201.128174	767.0
203.108093	191.0
204.11499	102.0
204.313797	61.0
207.140228	492.0
210.108047	97.0
211.098846	91.0
217.166153	349.0
219.14624	214.0
225.123505	129.0
229.119797	257.0
237.161697	128.0
253.155197	194.0
255.105392	139.0
255.169312	148.0
281.168182	273.0
281.192688	330.0
299.207123	972.0
317.213196	937.0
318.214539	246.0
335.213806	262.0
335.381714	182.0
336.231049	152.0
END IONS
